/*********************************************
 * OPL 12.6.0.0 Data
 * Author: Adrian Rodriguez Bazaga, Pau Rodriguez Esmerats
 * Creation Date: 06/12/2017 at 21:22:32
 *********************************************/

nNurses=131;
maxConsec=2;
maxPresence=7;
maxHours=5;
minHours=1;
demand= [23 18 42 40 18 42 40 19 27 18 3 3 5 6 5 5 5 5 2 3 21 39 18 36  ];
